inst=N16
r=4
Compute TTP bound for N16_4 with TimeLimit 21660
Save file as Instances/TTP/Bound_N16_4.txt
Read TTP files
Instance: NL16, Type: A, Contributor: Easton, Nemhauser, and Trick
Date: 0/0/2001
NrTeams = 16, NrRounds =  4
Set parameter TokenServer to value "licgurobi.ugent.be"
Set parameter Threads to value 8
Set parameter TimeLimit to value 21660
Gurobi Optimizer version 12.0.0 build v12.0.0rc1 (linux64 - "Red Hat Enterprise Linux 9.6 (Plow)")

CPU model: AMD EPYC 7552 48-Core Processor, instruction set [SSE2|AVX|AVX2]
Thread count: 96 physical cores, 96 logical processors, using up to 8 threads

Non-default parameters:
TimeLimit  21660
Threads  8

Optimize a model with 424 rows, 24016 columns and 70144 nonzeros
Model fingerprint: 0x33cd843a
Variable types: 0 continuous, 24016 integer (24016 binary)
Coefficient statistics:
  Matrix range     [1e+00, 1e+00]
  Objective range  [2e+02, 1e+04]
  Bounds range     [1e+00, 1e+00]
  RHS range        [1e+00, 2e+00]
Found heuristic solution: objective 76926.000000
Presolve removed 32 rows and 21856 columns
Presolve time: 0.17s
Presolved: 392 rows, 2160 columns, 4560 nonzeros
Variable types: 0 continuous, 2160 integer (2160 binary)

Root relaxation: objective 2.269627e+04, 492 iterations, 0.01 seconds (0.01 work units)

    Nodes    |    Current Node    |     Objective Bounds      |     Work
 Expl Unexpl |  Obj  Depth IntInf | Incumbent    BestBd   Gap | It/Node Time

     0     0 22696.2656    0  125 76926.0000 22696.2656  70.5%     -    0s
H    0     0                    50647.000000 22696.2656  55.2%     -    0s
H    0     0                    33269.000000 22696.2656  31.8%     -    0s
H    0     0                    32068.000000 22696.2656  29.2%     -    0s
H    0     0                    31549.000000 22696.2656  28.1%     -    0s
H    0     0                    31485.000000 22696.2656  27.9%     -    0s
H    0     0                    30827.000000 22696.2656  26.4%     -    0s
H    0     0                    26098.000000 22696.2656  13.0%     -    0s
H    0     0                    26078.000000 22696.2656  13.0%     -    0s
     0     0 22935.6667    0  109 26078.0000 22935.6667  12.0%     -    0s
H    0     0                    25193.000000 22935.6667  8.96%     -    0s
H    0     0                    24583.000000 22935.6667  6.70%     -    0s
     0     0 23097.4722    0  134 24583.0000 23097.4722  6.04%     -    0s
     0     0 23097.6389    0  138 24583.0000 23097.6389  6.04%     -    0s
     0     0 23248.4595    0  130 24583.0000 23248.4595  5.43%     -    0s
     0     0 23248.4595    0  125 24583.0000 23248.4595  5.43%     -    0s
H    0     0                    24440.000000 23248.4595  4.88%     -    0s
     0     0 23248.4595    0   91 24440.0000 23248.4595  4.88%     -    0s
     0     0 23255.0014    0  146 24440.0000 23255.0014  4.85%     -    0s
H    0     0                    23899.000000 23255.0014  2.69%     -    0s
     0     0 23299.6268    0  158 23899.0000 23299.6268  2.51%     -    0s
     0     0 23299.6268    0  119 23899.0000 23299.6268  2.51%     -    0s
H    0     0                    23881.000000 23299.6268  2.43%     -    0s
H    0     0                    23711.000000 23299.6268  1.73%     -    0s
     0     0 23299.6268    0  103 23711.0000 23299.6268  1.73%     -    0s
     0     0 23299.6268    0  118 23711.0000 23299.6268  1.73%     -    0s
     0     0 23299.6268    0  132 23711.0000 23299.6268  1.73%     -    0s
     0     0 23348.1434    0  132 23711.0000 23348.1434  1.53%     -    0s
H    0     0                    23625.000000 23348.1434  1.17%     -    0s
     0     0 23349.1250    0  142 23625.0000 23349.1250  1.17%     -    0s
     0     0 23370.9833    0  131 23625.0000 23370.9833  1.08%     -    0s
     0     0 23372.5769    0  119 23625.0000 23372.5769  1.07%     -    0s
     0     0 23372.6286    0  122 23625.0000 23372.6286  1.07%     -    0s
     0     0 23393.3610    0  129 23625.0000 23393.3610  0.98%     -    0s
     0     0 23393.3610    0  113 23625.0000 23393.3610  0.98%     -    0s
     0     0 23393.3610    0  131 23625.0000 23393.3610  0.98%     -    0s
     0     0 23393.3610    0  125 23625.0000 23393.3610  0.98%     -    0s
     0     0 23433.7829    0   95 23625.0000 23433.7829  0.81%     -    0s
     0     0 23435.8857    0   96 23625.0000 23435.8857  0.80%     -    0s
     0     0 23436.4286    0   93 23625.0000 23436.4286  0.80%     -    0s
     0     0 23450.8095    0   93 23625.0000 23450.8095  0.74%     -    0s
     0     0 23451.4886    0  109 23625.0000 23451.4886  0.73%     -    0s
     0     0 23466.1967    0  120 23625.0000 23466.1967  0.67%     -    0s
     0     0 23469.7395    0  148 23625.0000 23469.7395  0.66%     -    0s
     0     0 23478.8397    0  144 23625.0000 23478.8397  0.62%     -    0s
     0     0 23497.8999    0  106 23625.0000 23497.8999  0.54%     -    0s
     0     0 23499.6237    0  108 23625.0000 23499.6237  0.53%     -    0s
     0     0 23502.5165    0  110 23625.0000 23502.5165  0.52%     -    0s
     0     0 23502.5933    0  111 23625.0000 23502.5933  0.52%     -    0s
     0     0 23504.0159    0  113 23625.0000 23504.0159  0.51%     -    0s
     0     0 23505.0912    0  113 23625.0000 23505.0912  0.51%     -    0s
     0     0 23505.3078    0   62 23625.0000 23505.3078  0.51%     -    0s
     0     0 23505.3078    0   70 23625.0000 23505.3078  0.51%     -    0s
     0     0 23505.3078    0   83 23625.0000 23505.3078  0.51%     -    0s
     0     0 23506.1786    0   91 23625.0000 23506.1786  0.50%     -    0s
     0     0 23507.6965    0   96 23625.0000 23507.6965  0.50%     -    0s
     0     0 23512.9601    0   88 23625.0000 23512.9601  0.47%     -    0s
     0     0 23516.6574    0   95 23625.0000 23516.6574  0.46%     -    0s
     0     0 23517.3159    0   98 23625.0000 23517.3159  0.46%     -    0s
     0     0 23517.3424    0   99 23625.0000 23517.3424  0.46%     -    0s
     0     0 23518.7140    0  101 23625.0000 23518.7140  0.45%     -    0s
     0     0 23519.1626    0  101 23625.0000 23519.1626  0.45%     -    0s
     0     2 23520.8804    0  101 23625.0000 23520.8804  0.44%     -    0s

Cutting planes:
  Gomory: 8
  Cover: 1
  MIR: 1
  Zero half: 19
  Mod-K: 1

Explored 22 nodes (3553 simplex iterations) in 0.67 seconds (0.43 work units)
Thread count was 8 (of 96 available processors)

Solution count 10: 23625 23711 23722 ... 26078

Optimal solution found (tolerance 1.00e-04)
Best objective 2.362500000000e+04, best bound 2.362500000000e+04, gap 0.0000%

User-callback calls 877, time in user-callback 0.00 sec
LB for instance N16 with 4 = 23625, UB = 23625, gap = 0
